NAME : PR151C.97288.tour
COMMENT : Cost = 0_97288
COMMENT : Found by LKH [Keld Helsgaun] Sun Sep 17 16:52:43 2017
TYPE : TOUR
DIMENSION : 151
TOUR_SECTION
1
36
16
33
32
15
3
31
30
27
13
25
6
23
22
20
21
19
42
58
64
61
60
41
84
108
86
83
104
111
112
82
88
103
102
101
67
89
80
45
54
69
46
47
51
73
75
48
49
50
76
74
77
124
125
126
151
150
127
128
123
129
121
120
119
118
117
140
139
141
142
143
138
137
136
135
144
145
146
134
133
132
131
147
148
149
130
122
93
94
95
92
78
116
115
96
91
52
53
72
71
70
79
97
98
99
90
114
113
100
81
68
56
55
44
66
65
57
43
87
105
106
107
110
109
85
62
63
59
40
18
17
9
8
10
7
11
39
12
24
26
5
28
38
4
14
29
2
37
34
35
-1
EOF
